1745779
30,6,32,95,85,61,43,4,67,80,17,53,100,54,58,102,71,47,97,89,91,11,49,64,3,83,29,59,84,51,2,81,46,94,16,107,25,63,20,44,79,48,76,18,62,7,88,19,33,65,42,106,60,12,68,40,108,50,73,99,105,22,10,24,34,52,101,98,35,1,5,82,45,90,109,23,15,104,96,87,93,39,31,26,37,9,66,77,41,38,72,75,57,27,86,69,70,14,8,28,36,55,78,13,21,74,92,56,103